p cnf 28 58
2 -9 -12 0
-2 9 0
-2 12 0
-3 -4 -5 0
-3 4 5 0
3 4 -5 0
3 -4 5 0
4 -10 -12 0
-4 10 0
-4 12 0
5 -9 -11 0
-5 9 0
-5 11 0
6 11 -7 0
6 -11 7 0
-6 -11 -7 0
-6 11 7 0
7 -12 -13 0
-7 12 0
-7 13 0
-8 -12 -13 0
-8 12 13 0
8 12 -13 0
8 -12 13 0
-14 0
2 0
3 0
6 0
8 0

16 -23 -26 0
-16 23 0
-16 26 0
-17 -18 -19 0
-17 18 19 0
17 18 -19 0
17 -18 19 0
18 -24 -26 0
-18 24 0
-18 26 0
19 -23 -25 0
-19 23 0
-19 25 0
20 25 -21 0
20 -25 21 0
-20 -25 -21 0
-20 25 21 0
21 -26 -27 0
-21 26 0
-21 27 0
-22 -26 -27 0
-22 26 27 0
22 26 -27 0
22 -26 27 0
-28 0
16 0
17 0
20 0
22 0

